# Solution for model OBJROW
# Objective value = -70
x(0) 1
x(1) 1
x(2) 1
e_p(0) 4
e_p(1) 4
e_p(2) 4
xi_xj(0,1) 1
xi_xj(0,2) 1
xi_xj(1,2) 1
v(0) 4
E 4
y(0) 4
e(0) 1
v(1) 8
y(1) 0
e(1) 0
v(2) 7
y(2) 0
e(2) 0
xi_xj(0,0) 0
xi_xj(1,0) 0
xi_xj(2,0) 0
xi_xj(1,1) 0
xi_xj(2,1) 0
xi_xj(2,2) 0
